76,50
48,18
65,10
158,88
40,69
46,76
119,14
180,33
182,33
141,39
109,40
93,27
29,80
121,90
14,29
68,42
99,74
160,16
190,86
37,41
185,7
105,64
174,82
56,50
22,16
185,96
63,97
5,11
71,99
91,18
163,8
122,73
16,51
109,11
13,91
159,60
28,38
84,89
146,91
33,59
109,41
65,54
16,33
143,52
122,92
194,42
58,46
90,42
123,36
178,39
